letting initialStacks = [35, 6, 26, 36, 2, 38, 34, 12, 13, 23, 50, 28, 22, 7, 24, 27, 51, 10, 39, 49, 5, 21, 32, 9, 16, 20, 42, 48, 19, 18, 33, 11, 15, 3, 44, 8, 4, 17, 43, 14, 40, 37, 31, 41, 46, 1, 30, 29, 45, 25, 47]
